1600 3120
1 2 1
1 41 5
2 3 2
2 42 4
3 4 4
3 43 4
4 5 2
4 44 1
5 6 2
5 45 5
6 7 4
6 46 5
7 8 3
7 47 4
8 9 1
8 48 3
9 10 3
9 49 5
10 11 4
10 50 4
11 12 4
11 51 2
12 13 1
12 52 3
13 14 4
13 53 1
14 15 2
14 54 3
15 16 2
15 55 2
16 17 4
16 56 5
17 18 1
17 57 1
18 19 3
18 58 1
19 20 1
19 59 4
20 21 5
20 60 3
21 22 1
21 61 1
22 23 2
22 62 1
23 24 3
23 63 3
24 25 4
24 64 4
25 26 3
25 65 1
26 27 2
26 66 1
27 28 1
27 67 2
28 29 5
28 68 2
29 30 5
29 69 3
30 31 3
30 70 2
31 32 1
31 71 4
32 33 1
32 72 4
33 34 2
33 73 3
34 35 1
34 74 1
35 36 3
35 75 3
36 37 4
36 76 5
37 38 4
37 77 4
38 39 2
38 78 1
39 40 5
39 79 3
40 80 4
41 42 4
41 81 1
42 43 2
42 82 4
43 44 3
43 83 2
44 45 5
44 84 3
45 46 2
45 85 2
46 47 5
46 86 5
47 48 2
47 87 2
48 49 1
48 88 1
49 50 2
49 89 2
50 51 4
50 90 5
51 52 3
51 91 3
52 53 5
52 92 2
53 54 4
53 93 2
54 55 5
54 94 3
55 56 5
55 95 1
56 57 1
56 96 3
57 58 1
57 97 4
58 59 3
58 98 5
59 60 1
59 99 5
60 61 2
60 100 4
61 62 5
61 101 1
62 63 3
62 102 1
63 64 2
63 103 1
64 65 3
64 104 1
65 66 5
65 105 5
66 67 1
66 106 5
67 68 3
67 107 1
68 69 4
68 108 1
69 70 3
69 109 3
70 71 4
70 110 1
71 72 3
71 111 2
72 73 5
72 112 2
73 74 1
73 113 1
74 75 1
74 114 5
75 76 1
75 115 1
76 77 4
76 116 4
77 78 5
77 117 5
78 79 5
78 118 4
79 80 3
79 119 4
80 120 3
81 82 5
81 121 4
82 83 2
82 122 3
83 84 4
83 123 3
84 85 2
84 124 5
85 86 5
85 125 4
86 87 2
86 126 2
87 88 2
87 127 2
88 89 4
88 128 5
89 90 3
89 129 1
90 91 1
90 130 1
91 92 5
91 131 4
92 93 5
92 132 1
93 94 5
93 133 3
94 95 4
94 134 3
95 96 1
95 135 1
96 97 1
96 136 2
97 98 2
97 137 2
98 99 3
98 138 2
99 100 3
99 139 3
100 101 3
100 140 3
101 102 2
101 141 2
102 103 5
102 142 4
103 104 1
103 143 2
104 105 3
104 144 1
105 106 4
105 145 1
106 107 5
106 146 1
107 108 4
107 147 3
108 109 5
108 148 1
109 110 1
109 149 3
110 111 3
110 150 4
111 112 4
111 151 3
112 113 5
112 152 1
113 114 4
113 153 1
114 115 4
114 154 3
115 116 5
115 155 5
116 117 2
116 156 1
117 118 5
117 157 2
118 119 4
118 158 1
119 120 2
119 159 4
120 160 4
121 122 2
121 161 3
122 123 1
122 162 4
123 124 5
123 163 2
124 125 1
124 164 3
125 126 3
125 165 1
126 127 4
126 166 2
127 128 3
127 167 3
128 129 4
128 168 3
129 130 1
129 169 4
130 131 2
130 170 2
131 132 2
131 171 3
132 133 3
132 172 3
133 134 3
133 173 1
134 135 2
134 174 4
135 136 3
135 175 2
136 137 1
136 176 3
137 138 4
137 177 1
138 139 2
138 178 2
139 140 4
139 179 3
140 141 2
140 180 3
141 142 4
141 181 5
142 143 4
142 182 5
143 144 4
143 183 2
144 145 3
144 184 3
145 146 2
145 185 2
146 147 2
146 186 1
147 148 1
147 187 3
148 149 3
148 188 4
149 150 4
149 189 1
150 151 4
150 190 1
151 152 4
151 191 1
152 153 1
152 192 4
153 154 3
153 193 2
154 155 2
154 194 4
155 156 4
155 195 2
156 157 3
156 196 4
157 158 4
157 197 3
158 159 1
158 198 3
159 160 5
159 199 2
160 200 4
161 162 1
161 201 2
162 163 2
162 202 1
163 164 5
163 203 3
164 165 3
164 204 4
165 166 5
165 205 5
166 167 4
166 206 5
167 168 4
167 207 5
168 169 3
168 208 4
169 170 1
169 209 3
170 171 2
170 210 4
171 172 4
171 211 1
172 173 5
172 212 1
173 174 2
173 213 4
174 175 5
174 214 4
175 176 1
175 215 5
176 177 4
176 216 2
177 178 5
177 217 5
178 179 3
178 218 1
179 180 5
179 219 1
180 181 2
180 220 1
181 182 2
181 221 4
182 183 1
182 222 3
183 184 2
183 223 1
184 185 2
184 224 3
185 186 3
185 225 3
186 187 3
186 226 5
187 188 1
187 227 4
188 189 1
188 228 1
189 190 4
189 229 2
190 191 1
190 230 3
191 192 1
191 231 1
192 193 4
192 232 1
193 194 1
193 233 5
194 195 3
194 234 5
195 196 4
195 235 5
196 197 3
196 236 5
197 198 4
197 237 4
198 199 5
198 238 2
199 200 4
199 239 2
200 240 4
201 202 5
201 241 2
202 203 5
202 242 4
203 204 1
203 243 5
204 205 5
204 244 1
205 206 1
205 245 4
206 207 4
206 246 1
207 208 3
207 247 2
208 209 1
208 248 3
209 210 2
209 249 4
210 211 5
210 250 2
211 212 1
211 251 1
212 213 2
212 252 1
213 214 2
213 253 1
214 215 2
214 254 5
215 216 3
215 255 3
216 217 5
216 256 1
217 218 1
217 257 3
218 219 3
218 258 4
219 220 2
219 259 3
220 221 1
220 260 5
221 222 4
221 261 1
222 223 1
222 262 2
223 224 5
223 263 3
224 225 1
224 264 5
225 226 4
225 265 2
226 227 5
226 266 1
227 228 1
227 267 3
228 229 5
228 268 5
229 230 4
229 269 1
230 231 2
230 270 4
231 232 1
231 271 3
232 233 4
232 272 2
233 234 1
233 273 3
234 235 5
234 274 4
235 236 5
235 275 1
236 237 3
236 276 3
237 238 5
237 277 3
238 239 3
238 278 5
239 240 1
239 279 1
240 280 1
241 242 3
241 281 1
242 243 2
242 282 3
243 244 2
243 283 2
244 245 4
244 284 2
245 246 1
245 285 3
246 247 3
246 286 2
247 248 5
247 287 2
248 249 4
248 288 1
249 250 2
249 289 1
250 251 3
250 290 2
251 252 4
251 291 1
252 253 3
252 292 3
253 254 5
253 293 3
254 255 1
254 294 3
255 256 1
255 295 4
256 257 4
256 296 4
257 258 3
257 297 3
258 259 1
258 298 4
259 260 1
259 299 5
260 261 4
260 300 3
261 262 3
261 301 4
262 263 1
262 302 1
263 264 5
263 303 4
264 265 4
264 304 2
265 266 2
265 305 1
266 267 1
266 306 1
267 268 3
267 307 2
268 269 2
268 308 2
269 270 3
269 309 3
270 271 3
270 310 3
271 272 4
271 311 2
272 273 2
272 312 1
273 274 2
273 313 5
274 275 3
274 314 3
275 276 4
275 315 3
276 277 5
276 316 2
277 278 5
277 317 3
278 279 4
278 318 2
279 280 1
279 319 1
280 320 4
281 282 5
281 321 2
282 283 2
282 322 4
283 284 5
283 323 4
284 285 1
284 324 3
285 286 1
285 325 4
286 287 3
286 326 1
287 288 4
287 327 2
288 289 4
288 328 5
289 290 2
289 329 5
290 291 5
290 330 3
291 292 4
291 331 2
292 293 4
292 332 5
293 294 4
293 333 3
294 295 3
294 334 5
295 296 2
295 335 4
296 297 2
296 336 1
297 298 2
297 337 3
298 299 2
298 338 5
299 300 1
299 339 1
300 301 2
300 340 2
301 302 2
301 341 3
302 303 5
302 342 3
303 304 1
303 343 5
304 305 1
304 344 1
305 306 1
305 345 2
306 307 4
306 346 2
307 308 2
307 347 1
308 309 1
308 348 3
309 310 4
309 349 3
310 311 4
310 350 4
311 312 5
311 351 5
312 313 2
312 352 3
313 314 5
313 353 5
314 315 4
314 354 1
315 316 4
315 355 2
316 317 3
316 356 1
317 318 2
317 357 3
318 319 5
318 358 4
319 320 5
319 359 2
320 360 1
321 322 3
321 361 5
322 323 3
322 362 2
323 324 3
323 363 3
324 325 5
324 364 5
325 326 4
325 365 4
326 327 2
326 366 2
327 328 1
327 367 5
328 329 4
328 368 3
329 330 5
329 369 5
330 331 4
330 370 4
331 332 5
331 371 2
332 333 4
332 372 5
333 334 2
333 373 5
334 335 3
334 374 4
335 336 3
335 375 4
336 337 2
336 376 5
337 338 3
337 377 1
338 339 2
338 378 5
339 340 5
339 379 2
340 341 1
340 380 1
341 342 3
341 381 5
342 343 4
342 382 2
343 344 3
343 383 1
344 345 4
344 384 3
345 346 4
345 385 3
346 347 2
346 386 1
347 348 3
347 387 1
348 349 4
348 388 3
349 350 5
349 389 2
350 351 4
350 390 1
351 352 5
351 391 1
352 353 4
352 392 4
353 354 1
353 393 1
354 355 4
354 394 4
355 356 1
355 395 1
356 357 3
356 396 3
357 358 3
357 397 1
358 359 3
358 398 4
359 360 2
359 399 2
360 400 1
361 362 5
361 401 4
362 363 1
362 402 5
363 364 1
363 403 5
364 365 2
364 404 4
365 366 5
365 405 2
366 367 3
366 406 1
367 368 1
367 407 5
368 369 4
368 408 3
369 370 1
369 409 4
370 371 1
370 410 5
371 372 4
371 411 4
372 373 2
372 412 5
373 374 1
373 413 2
374 375 4
374 414 2
375 376 1
375 415 1
376 377 1
376 416 5
377 378 5
377 417 3
378 379 2
378 418 4
379 380 4
379 419 2
380 381 2
380 420 5
381 382 1
381 421 3
382 383 1
382 422 4
383 384 3
383 423 3
384 385 3
384 424 1
385 386 4
385 425 2
386 387 4
386 426 4
387 388 3
387 427 1
388 389 5
388 428 2
389 390 4
389 429 3
390 391 2
390 430 3
391 392 4
391 431 3
392 393 2
392 432 1
393 394 1
393 433 3
394 395 3
394 434 5
395 396 1
395 435 2
396 397 5
396 436 5
397 398 5
397 437 3
398 399 5
398 438 1
399 400 4
399 439 3
400 440 2
401 402 5
401 441 5
402 403 5
402 442 3
403 404 3
403 443 4
404 405 5
404 444 3
405 406 5
405 445 3
406 407 1
406 446 2
407 408 3
407 447 4
408 409 2
408 448 2
409 410 2
409 449 5
410 411 3
410 450 5
411 412 1
411 451 5
412 413 3
412 452 5
413 414 1
413 453 3
414 415 2
414 454 1
415 416 2
415 455 4
416 417 1
416 456 1
417 418 3
417 457 2
418 419 1
418 458 2
419 420 4
419 459 4
420 421 3
420 460 5
421 422 3
421 461 5
422 423 1
422 462 5
423 424 1
423 463 2
424 425 4
424 464 1
425 426 3
425 465 3
426 427 1
426 466 2
427 428 4
427 467 5
428 429 1
428 468 1
429 430 1
429 469 2
430 431 5
430 470 5
431 432 2
431 471 2
432 433 3
432 472 4
433 434 2
433 473 1
434 435 3
434 474 4
435 436 1
435 475 1
436 437 5
436 476 5
437 438 1
437 477 4
438 439 5
438 478 1
439 440 5
439 479 2
440 480 5
441 442 5
441 481 5
442 443 3
442 482 1
443 444 5
443 483 4
444 445 3
444 484 2
445 446 1
445 485 3
446 447 1
446 486 5
447 448 5
447 487 4
448 449 1
448 488 3
449 450 4
449 489 2
450 451 4
450 490 4
451 452 2
451 491 4
452 453 2
452 492 2
453 454 4
453 493 3
454 455 5
454 494 2
455 456 1
455 495 3
456 457 3
456 496 5
457 458 1
457 497 2
458 459 1
458 498 5
459 460 2
459 499 5
460 461 4
460 500 4
461 462 5
461 501 3
462 463 3
462 502 2
463 464 3
463 503 4
464 465 2
464 504 2
465 466 3
465 505 5
466 467 5
466 506 1
467 468 4
467 507 4
468 469 3
468 508 5
469 470 4
469 509 4
470 471 4
470 510 4
471 472 4
471 511 4
472 473 2
472 512 3
473 474 1
473 513 4
474 475 5
474 514 1
475 476 5
475 515 5
476 477 1
476 516 3
477 478 2
477 517 4
478 479 2
478 518 5
479 480 4
479 519 5
480 520 4
481 482 2
481 521 2
482 483 5
482 522 4
483 484 4
483 523 5
484 485 1
484 524 5
485 486 2
485 525 2
486 487 1
486 526 1
487 488 1
487 527 5
488 489 1
488 528 3
489 490 1
489 529 4
490 491 3
490 530 2
491 492 2
491 531 1
492 493 4
492 532 3
493 494 5
493 533 1
494 495 5
494 534 4
495 496 2
495 535 4
496 497 4
496 536 4
497 498 2
497 537 3
498 499 1
498 538 5
499 500 5
499 539 4
500 501 2
500 540 5
501 502 4
501 541 5
502 503 2
502 542 2
503 504 1
503 543 3
504 505 3
504 544 4
505 506 2
505 545 4
506 507 5
506 546 1
507 508 4
507 547 3
508 509 5
508 548 3
509 510 5
509 549 3
510 511 1
510 550 5
511 512 4
511 551 4
512 513 1
512 552 4
513 514 2
513 553 3
514 515 2
514 554 3
515 516 5
515 555 1
516 517 1
516 556 5
517 518 1
517 557 1
518 519 4
518 558 3
519 520 5
519 559 1
520 560 5
521 522 5
521 561 5
522 523 4
522 562 2
523 524 5
523 563 1
524 525 4
524 564 5
525 526 5
525 565 4
526 527 2
526 566 4
527 528 3
527 567 5
528 529 5
528 568 1
529 530 1
529 569 1
530 531 2
530 570 4
531 532 2
531 571 5
532 533 4
532 572 3
533 534 4
533 573 5
534 535 3
534 574 4
535 536 1
535 575 1
536 537 3
536 576 4
537 538 3
537 577 3
538 539 5
538 578 3
539 540 3
539 579 5
540 541 3
540 580 4
541 542 3
541 581 2
542 543 4
542 582 2
543 544 1
543 583 3
544 545 5
544 584 3
545 546 5
545 585 1
546 547 4
546 586 5
547 548 5
547 587 2
548 549 5
548 588 4
549 550 3
549 589 2
550 551 4
550 590 3
551 552 3
551 591 4
552 553 5
552 592 2
553 554 1
553 593 2
554 555 3
554 594 1
555 556 2
555 595 3
556 557 1
556 596 5
557 558 2
557 597 5
558 559 1
558 598 4
559 560 4
559 599 2
560 600 4
561 562 4
561 601 4
562 563 5
562 602 1
563 564 4
563 603 4
564 565 3
564 604 2
565 566 5
565 605 4
566 567 2
566 606 3
567 568 3
567 607 2
568 569 4
568 608 5
569 570 2
569 609 2
570 571 4
570 610 4
571 572 5
571 611 5
572 573 5
572 612 1
573 574 2
573 613 4
574 575 1
574 614 2
575 576 3
575 615 3
576 577 5
576 616 3
577 578 5
577 617 2
578 579 1
578 618 2
579 580 5
579 619 5
580 581 1
580 620 2
581 582 5
581 621 2
582 583 3
582 622 4
583 584 5
583 623 5
584 585 5
584 624 5
585 586 5
585 625 1
586 587 4
586 626 5
587 588 1
587 627 4
588 589 2
588 628 4
589 590 5
589 629 1
590 591 3
590 630 3
591 592 1
591 631 2
592 593 2
592 632 3
593 594 4
593 633 5
594 595 2
594 634 4
595 596 1
595 635 5
596 597 3
596 636 3
597 598 1
597 637 4
598 599 3
598 638 2
599 600 5
599 639 5
600 640 2
601 602 3
601 641 1
602 603 1
602 642 5
603 604 2
603 643 3
604 605 1
604 644 5
605 606 5
605 645 2
606 607 3
606 646 1
607 608 5
607 647 4
608 609 4
608 648 1
609 610 1
609 649 2
610 611 3
610 650 2
611 612 1
611 651 3
612 613 3
612 652 4
613 614 2
613 653 2
614 615 4
614 654 5
615 616 3
615 655 4
616 617 1
616 656 1
617 618 3
617 657 5
618 619 4
618 658 1
619 620 4
619 659 1
620 621 1
620 660 2
621 622 1
621 661 3
622 623 4
622 662 3
623 624 5
623 663 3
624 625 5
624 664 2
625 626 1
625 665 3
626 627 1
626 666 4
627 628 5
627 667 3
628 629 2
628 668 4
629 630 3
629 669 4
630 631 4
630 670 3
631 632 2
631 671 2
632 633 4
632 672 3
633 634 2
633 673 3
634 635 4
634 674 5
635 636 4
635 675 1
636 637 5
636 676 5
637 638 5
637 677 1
638 639 3
638 678 3
639 640 2
639 679 5
640 680 4
641 642 1
641 681 2
642 643 1
642 682 4
643 644 2
643 683 4
644 645 2
644 684 5
645 646 3
645 685 3
646 647 3
646 686 1
647 648 3
647 687 4
648 649 2
648 688 1
649 650 3
649 689 2
650 651 1
650 690 5
651 652 2
651 691 1
652 653 2
652 692 2
653 654 2
653 693 3
654 655 3
654 694 2
655 656 3
655 695 1
656 657 2
656 696 3
657 658 1
657 697 2
658 659 1
658 698 1
659 660 4
659 699 4
660 661 4
660 700 1
661 662 3
661 701 5
662 663 4
662 702 3
663 664 1
663 703 4
664 665 3
664 704 4
665 666 3
665 705 4
666 667 4
666 706 1
667 668 1
667 707 2
668 669 3
668 708 2
669 670 4
669 709 4
670 671 1
670 710 1
671 672 5
671 711 2
672 673 5
672 712 1
673 674 3
673 713 2
674 675 3
674 714 2
675 676 5
675 715 5
676 677 4
676 716 5
677 678 3
677 717 4
678 679 2
678 718 5
679 680 4
679 719 1
680 720 4
681 682 5
681 721 1
682 683 5
682 722 4
683 684 2
683 723 1
684 685 4
684 724 4
685 686 1
685 725 1
686 687 4
686 726 5
687 688 2
687 727 3
688 689 4
688 728 1
689 690 3
689 729 1
690 691 4
690 730 2
691 692 5
691 731 4
692 693 1
692 732 4
693 694 1
693 733 1
694 695 3
694 734 4
695 696 1
695 735 1
696 697 4
696 736 5
697 698 5
697 737 1
698 699 1
698 738 3
699 700 1
699 739 3
700 701 5
700 740 2
701 702 3
701 741 3
702 703 2
702 742 1
703 704 1
703 743 1
704 705 5
704 744 5
705 706 1
705 745 1
706 707 4
706 746 3
707 708 3
707 747 5
708 709 3
708 748 3
709 710 5
709 749 2
710 711 3
710 750 5
711 712 3
711 751 4
712 713 4
712 752 2
713 714 2
713 753 3
714 715 4
714 754 4
715 716 2
715 755 2
716 717 3
716 756 4
717 718 5
717 757 4
718 719 1
718 758 5
719 720 2
719 759 1
720 760 4
721 722 4
721 761 3
722 723 2
722 762 5
723 724 4
723 763 3
724 725 3
724 764 1
725 726 4
725 765 4
726 727 1
726 766 5
727 728 4
727 767 1
728 729 1
728 768 3
729 730 2
729 769 5
730 731 1
730 770 5
731 732 3
731 771 1
732 733 4
732 772 1
733 734 4
733 773 1
734 735 2
734 774 4
735 736 3
735 775 3
736 737 5
736 776 2
737 738 5
737 777 2
738 739 4
738 778 5
739 740 1
739 779 1
740 741 1
740 780 2
741 742 3
741 781 5
742 743 3
742 782 5
743 744 4
743 783 1
744 745 5
744 784 5
745 746 2
745 785 2
746 747 2
746 786 3
747 748 5
747 787 2
748 749 3
748 788 2
749 750 3
749 789 3
750 751 2
750 790 2
751 752 4
751 791 5
752 753 1
752 792 3
753 754 4
753 793 5
754 755 4
754 794 1
755 756 2
755 795 5
756 757 5
756 796 1
757 758 4
757 797 5
758 759 5
758 798 3
759 760 1
759 799 5
760 800 1
761 762 4
761 801 4
762 763 1
762 802 4
763 764 5
763 803 5
764 765 5
764 804 1
765 766 5
765 805 2
766 767 1
766 806 5
767 768 3
767 807 1
768 769 2
768 808 2
769 770 4
769 809 5
770 771 5
770 810 4
771 772 3
771 811 1
772 773 5
772 812 1
773 774 4
773 813 4
774 775 3
774 814 5
775 776 5
775 815 3
776 777 5
776 816 4
777 778 2
777 817 4
778 779 4
778 818 3
779 780 2
779 819 5
780 781 3
780 820 5
781 782 1
781 821 5
782 783 5
782 822 5
783 784 1
783 823 3
784 785 5
784 824 5
785 786 4
785 825 2
786 787 1
786 826 5
787 788 4
787 827 4
788 789 1
788 828 1
789 790 3
789 829 2
790 791 3
790 830 1
791 792 5
791 831 3
792 793 2
792 832 5
793 794 5
793 833 2
794 795 5
794 834 2
795 796 3
795 835 2
796 797 2
796 836 3
797 798 3
797 837 3
798 799 4
798 838 4
799 800 3
799 839 2
800 840 4
801 802 4
801 841 4
802 803 5
802 842 5
803 804 1
803 843 2
804 805 3
804 844 2
805 806 5
805 845 1
806 807 1
806 846 5
807 808 3
807 847 5
808 809 1
808 848 3
809 810 1
809 849 5
810 811 2
810 850 1
811 812 1
811 851 1
812 813 1
812 852 1
813 814 3
813 853 1
814 815 3
814 854 3
815 816 5
815 855 1
816 817 3
816 856 5
817 818 1
817 857 3
818 819 3
818 858 5
819 820 2
819 859 2
820 821 4
820 860 3
821 822 5
821 861 4
822 823 4
822 862 2
823 824 2
823 863 3
824 825 3
824 864 3
825 826 2
825 865 4
826 827 1
826 866 4
827 828 3
827 867 1
828 829 3
828 868 3
829 830 5
829 869 3
830 831 4
830 870 2
831 832 1
831 871 5
832 833 3
832 872 3
833 834 1
833 873 2
834 835 3
834 874 2
835 836 1
835 875 5
836 837 1
836 876 1
837 838 2
837 877 3
838 839 3
838 878 1
839 840 4
839 879 3
840 880 1
841 842 1
841 881 3
842 843 5
842 882 2
843 844 4
843 883 2
844 845 4
844 884 4
845 846 3
845 885 2
846 847 2
846 886 2
847 848 3
847 887 1
848 849 2
848 888 5
849 850 2
849 889 1
850 851 1
850 890 1
851 852 3
851 891 3
852 853 2
852 892 2
853 854 1
853 893 3
854 855 3
854 894 5
855 856 2
855 895 3
856 857 3
856 896 3
857 858 5
857 897 2
858 859 4
858 898 4
859 860 4
859 899 4
860 861 4
860 900 5
861 862 3
861 901 5
862 863 3
862 902 5
863 864 5
863 903 1
864 865 4
864 904 5
865 866 4
865 905 1
866 867 2
866 906 4
867 868 5
867 907 3
868 869 3
868 908 3
869 870 5
869 909 1
870 871 4
870 910 5
871 872 2
871 911 5
872 873 5
872 912 3
873 874 2
873 913 1
874 875 4
874 914 1
875 876 2
875 915 1
876 877 3
876 916 5
877 878 4
877 917 2
878 879 3
878 918 2
879 880 5
879 919 3
880 920 5
881 882 1
881 921 3
882 883 1
882 922 2
883 884 1
883 923 5
884 885 5
884 924 1
885 886 2
885 925 4
886 887 3
886 926 5
887 888 1
887 927 5
888 889 2
888 928 2
889 890 5
889 929 5
890 891 4
890 930 2
891 892 2
891 931 4
892 893 3
892 932 4
893 894 1
893 933 5
894 895 4
894 934 4
895 896 4
895 935 5
896 897 3
896 936 1
897 898 5
897 937 3
898 899 4
898 938 2
899 900 2
899 939 5
900 901 5
900 940 4
901 902 5
901 941 4
902 903 1
902 942 5
903 904 1
903 943 1
904 905 4
904 944 2
905 906 2
905 945 3
906 907 5
906 946 3
907 908 5
907 947 2
908 909 5
908 948 2
909 910 3
909 949 2
910 911 5
910 950 5
911 912 3
911 951 2
912 913 1
912 952 3
913 914 1
913 953 2
914 915 2
914 954 4
915 916 3
915 955 2
916 917 2
916 956 3
917 918 1
917 957 2
918 919 3
918 958 1
919 920 1
919 959 2
920 960 5
921 922 3
921 961 3
922 923 3
922 962 5
923 924 4
923 963 4
924 925 3
924 964 5
925 926 2
925 965 1
926 927 3
926 966 5
927 928 4
927 967 2
928 929 3
928 968 1
929 930 3
929 969 2
930 931 4
930 970 2
931 932 2
931 971 2
932 933 2
932 972 5
933 934 1
933 973 3
934 935 4
934 974 5
935 936 1
935 975 4
936 937 3
936 976 4
937 938 2
937 977 4
938 939 5
938 978 4
939 940 5
939 979 2
940 941 5
940 980 3
941 942 1
941 981 5
942 943 4
942 982 3
943 944 5
943 983 3
944 945 4
944 984 5
945 946 3
945 985 1
946 947 4
946 986 4
947 948 3
947 987 1
948 949 5
948 988 4
949 950 4
949 989 2
950 951 3
950 990 2
951 952 4
951 991 3
952 953 1
952 992 2
953 954 5
953 993 4
954 955 5
954 994 4
955 956 2
955 995 3
956 957 4
956 996 1
957 958 4
957 997 5
958 959 3
958 998 4
959 960 4
959 999 1
960 1000 4
961 962 1
961 1001 5
962 963 3
962 1002 1
963 964 1
963 1003 2
964 965 2
964 1004 2
965 966 1
965 1005 1
966 967 4
966 1006 2
967 968 5
967 1007 5
968 969 5
968 1008 3
969 970 1
969 1009 2
970 971 2
970 1010 3
971 972 4
971 1011 4
972 973 5
972 1012 3
973 974 4
973 1013 5
974 975 2
974 1014 3
975 976 5
975 1015 3
976 977 3
976 1016 1
977 978 5
977 1017 5
978 979 4
978 1018 4
979 980 5
979 1019 4
980 981 1
980 1020 3
981 982 1
981 1021 4
982 983 5
982 1022 4
983 984 5
983 1023 3
984 985 4
984 1024 1
985 986 5
985 1025 5
986 987 2
986 1026 4
987 988 2
987 1027 4
988 989 3
988 1028 4
989 990 3
989 1029 1
990 991 2
990 1030 1
991 992 4
991 1031 5
992 993 1
992 1032 1
993 994 3
993 1033 2
994 995 3
994 1034 1
995 996 4
995 1035 5
996 997 5
996 1036 1
997 998 3
997 1037 5
998 999 2
998 1038 4
999 1000 5
999 1039 3
1000 1040 1
1001 1002 3
1001 1041 4
1002 1003 1
1002 1042 3
1003 1004 1
1003 1043 2
1004 1005 5
1004 1044 1
1005 1006 3
1005 1045 4
1006 1007 2
1006 1046 3
1007 1008 1
1007 1047 5
1008 1009 4
1008 1048 4
1009 1010 1
1009 1049 4
1010 1011 2
1010 1050 5
1011 1012 5
1011 1051 2
1012 1013 4
1012 1052 2
1013 1014 1
1013 1053 1
1014 1015 4
1014 1054 1
1015 1016 2
1015 1055 2
1016 1017 1
1016 1056 2
1017 1018 1
1017 1057 4
1018 1019 3
1018 1058 3
1019 1020 5
1019 1059 3
1020 1021 2
1020 1060 2
1021 1022 4
1021 1061 4
1022 1023 2
1022 1062 2
1023 1024 1
1023 1063 5
1024 1025 2
1024 1064 5
1025 1026 1
1025 1065 2
1026 1027 3
1026 1066 5
1027 1028 4
1027 1067 4
1028 1029 3
1028 1068 2
1029 1030 3
1029 1069 3
1030 1031 4
1030 1070 2
1031 1032 4
1031 1071 4
1032 1033 1
1032 1072 5
1033 1034 5
1033 1073 1
1034 1035 4
1034 1074 4
1035 1036 4
1035 1075 4
1036 1037 2
1036 1076 3
1037 1038 3
1037 1077 1
1038 1039 4
1038 1078 3
1039 1040 2
1039 1079 4
1040 1080 1
1041 1042 2
1041 1081 5
1042 1043 1
1042 1082 3
1043 1044 2
1043 1083 3
1044 1045 4
1044 1084 5
1045 1046 3
1045 1085 2
1046 1047 2
1046 1086 2
1047 1048 4
1047 1087 3
1048 1049 4
1048 1088 1
1049 1050 4
1049 1089 2
1050 1051 1
1050 1090 1
1051 1052 5
1051 1091 3
1052 1053 5
1052 1092 1
1053 1054 4
1053 1093 1
1054 1055 3
1054 1094 1
1055 1056 1
1055 1095 2
1056 1057 4
1056 1096 5
1057 1058 4
1057 1097 4
1058 1059 4
1058 1098 4
1059 1060 4
1059 1099 1
1060 1061 1
1060 1100 1
1061 1062 1
1061 1101 3
1062 1063 4
1062 1102 2
1063 1064 2
1063 1103 5
1064 1065 3
1064 1104 4
1065 1066 2
1065 1105 5
1066 1067 3
1066 1106 4
1067 1068 4
1067 1107 3
1068 1069 3
1068 1108 5
1069 1070 3
1069 1109 1
1070 1071 5
1070 1110 3
1071 1072 4
1071 1111 2
1072 1073 4
1072 1112 3
1073 1074 4
1073 1113 3
1074 1075 3
1074 1114 4
1075 1076 3
1075 1115 1
1076 1077 5
1076 1116 1
1077 1078 2
1077 1117 4
1078 1079 5
1078 1118 3
1079 1080 2
1079 1119 1
1080 1120 3
1081 1082 5
1081 1121 3
1082 1083 1
1082 1122 3
1083 1084 3
1083 1123 4
1084 1085 3
1084 1124 5
1085 1086 5
1085 1125 2
1086 1087 4
1086 1126 1
1087 1088 3
1087 1127 2
1088 1089 5
1088 1128 1
1089 1090 2
1089 1129 5
1090 1091 1
1090 1130 3
1091 1092 2
1091 1131 2
1092 1093 3
1092 1132 2
1093 1094 2
1093 1133 1
1094 1095 4
1094 1134 1
1095 1096 4
1095 1135 5
1096 1097 1
1096 1136 1
1097 1098 5
1097 1137 1
1098 1099 3
1098 1138 1
1099 1100 4
1099 1139 5
1100 1101 2
1100 1140 1
1101 1102 3
1101 1141 4
1102 1103 1
1102 1142 4
1103 1104 4
1103 1143 5
1104 1105 4
1104 1144 3
1105 1106 5
1105 1145 4
1106 1107 4
1106 1146 4
1107 1108 2
1107 1147 4
1108 1109 5
1108 1148 4
1109 1110 4
1109 1149 1
1110 1111 5
1110 1150 2
1111 1112 1
1111 1151 5
1112 1113 2
1112 1152 3
1113 1114 2
1113 1153 2
1114 1115 1
1114 1154 3
1115 1116 4
1115 1155 1
1116 1117 5
1116 1156 5
1117 1118 3
1117 1157 5
1118 1119 5
1118 1158 4
1119 1120 2
1119 1159 3
1120 1160 3
1121 1122 1
1121 1161 4
1122 1123 4
1122 1162 4
1123 1124 5
1123 1163 4
1124 1125 3
1124 1164 4
1125 1126 1
1125 1165 3
1126 1127 1
1126 1166 5
1127 1128 1
1127 1167 1
1128 1129 4
1128 1168 5
1129 1130 3
1129 1169 1
1130 1131 4
1130 1170 3
1131 1132 3
1131 1171 3
1132 1133 3
1132 1172 2
1133 1134 1
1133 1173 5
1134 1135 5
1134 1174 5
1135 1136 5
1135 1175 3
1136 1137 3
1136 1176 1
1137 1138 3
1137 1177 1
1138 1139 5
1138 1178 3
1139 1140 3
1139 1179 5
1140 1141 3
1140 1180 2
1141 1142 4
1141 1181 2
1142 1143 3
1142 1182 5
1143 1144 5
1143 1183 2
1144 1145 3
1144 1184 4
1145 1146 2
1145 1185 1
1146 1147 5
1146 1186 5
1147 1148 4
1147 1187 1
1148 1149 4
1148 1188 5
1149 1150 5
1149 1189 3
1150 1151 5
1150 1190 5
1151 1152 2
1151 1191 1
1152 1153 1
1152 1192 3
1153 1154 4
1153 1193 4
1154 1155 3
1154 1194 1
1155 1156 3
1155 1195 3
1156 1157 5
1156 1196 5
1157 1158 2
1157 1197 2
1158 1159 4
1158 1198 1
1159 1160 5
1159 1199 1
1160 1200 5
1161 1162 5
1161 1201 1
1162 1163 2
1162 1202 1
1163 1164 1
1163 1203 4
1164 1165 5
1164 1204 2
1165 1166 3
1165 1205 1
1166 1167 2
1166 1206 2
1167 1168 4
1167 1207 3
1168 1169 5
1168 1208 3
1169 1170 3
1169 1209 3
1170 1171 1
1170 1210 5
1171 1172 2
1171 1211 3
1172 1173 2
1172 1212 4
1173 1174 3
1173 1213 4
1174 1175 3
1174 1214 3
1175 1176 4
1175 1215 3
1176 1177 1
1176 1216 2
1177 1178 1
1177 1217 2
1178 1179 3
1178 1218 3
1179 1180 5
1179 1219 4
1180 1181 3
1180 1220 5
1181 1182 1
1181 1221 2
1182 1183 5
1182 1222 4
1183 1184 4
1183 1223 2
1184 1185 4
1184 1224 5
1185 1186 4
1185 1225 4
1186 1187 3
1186 1226 2
1187 1188 1
1187 1227 5
1188 1189 5
1188 1228 5
1189 1190 3
1189 1229 3
1190 1191 2
1190 1230 5
1191 1192 4
1191 1231 2
1192 1193 5
1192 1232 2
1193 1194 5
1193 1233 4
1194 1195 1
1194 1234 1
1195 1196 3
1195 1235 5
1196 1197 1
1196 1236 3
1197 1198 3
1197 1237 1
1198 1199 2
1198 1238 2
1199 1200 4
1199 1239 1
1200 1240 2
1201 1202 1
1201 1241 3
1202 1203 3
1202 1242 1
1203 1204 3
1203 1243 3
1204 1205 5
1204 1244 1
1205 1206 1
1205 1245 3
1206 1207 2
1206 1246 3
1207 1208 5
1207 1247 4
1208 1209 1
1208 1248 5
1209 1210 3
1209 1249 2
1210 1211 4
1210 1250 2
1211 1212 5
1211 1251 4
1212 1213 1
1212 1252 3
1213 1214 1
1213 1253 4
1214 1215 5
1214 1254 3
1215 1216 3
1215 1255 1
1216 1217 4
1216 1256 2
1217 1218 2
1217 1257 3
1218 1219 5
1218 1258 5
1219 1220 2
1219 1259 1
1220 1221 3
1220 1260 4
1221 1222 3
1221 1261 4
1222 1223 3
1222 1262 1
1223 1224 3
1223 1263 1
1224 1225 5
1224 1264 1
1225 1226 1
1225 1265 2
1226 1227 3
1226 1266 2
1227 1228 5
1227 1267 1
1228 1229 1
1228 1268 5
1229 1230 2
1229 1269 1
1230 1231 1
1230 1270 2
1231 1232 2
1231 1271 3
1232 1233 3
1232 1272 5
1233 1234 3
1233 1273 2
1234 1235 4
1234 1274 3
1235 1236 2
1235 1275 3
1236 1237 5
1236 1276 2
1237 1238 2
1237 1277 5
1238 1239 4
1238 1278 5
1239 1240 4
1239 1279 2
1240 1280 5
1241 1242 5
1241 1281 2
1242 1243 5
1242 1282 5
1243 1244 1
1243 1283 2
1244 1245 2
1244 1284 2
1245 1246 2
1245 1285 4
1246 1247 1
1246 1286 4
1247 1248 1
1247 1287 5
1248 1249 5
1248 1288 3
1249 1250 2
1249 1289 1
1250 1251 2
1250 1290 4
1251 1252 4
1251 1291 5
1252 1253 4
1252 1292 1
1253 1254 1
1253 1293 4
1254 1255 4
1254 1294 5
1255 1256 5
1255 1295 3
1256 1257 5
1256 1296 3
1257 1258 1
1257 1297 5
1258 1259 3
1258 1298 2
1259 1260 4
1259 1299 2
1260 1261 5
1260 1300 2
1261 1262 2
1261 1301 2
1262 1263 4
1262 1302 5
1263 1264 4
1263 1303 5
1264 1265 3
1264 1304 4
1265 1266 5
1265 1305 5
1266 1267 3
1266 1306 5
1267 1268 5
1267 1307 1
1268 1269 3
1268 1308 2
1269 1270 4
1269 1309 4
1270 1271 3
1270 1310 5
1271 1272 1
1271 1311 3
1272 1273 1
1272 1312 4
1273 1274 3
1273 1313 3
1274 1275 1
1274 1314 3
1275 1276 1
1275 1315 3
1276 1277 5
1276 1316 5
1277 1278 1
1277 1317 1
1278 1279 5
1278 1318 2
1279 1280 3
1279 1319 5
1280 1320 2
1281 1282 2
1281 1321 1
1282 1283 4
1282 1322 4
1283 1284 3
1283 1323 5
1284 1285 2
1284 1324 4
1285 1286 5
1285 1325 5
1286 1287 4
1286 1326 5
1287 1288 5
1287 1327 5
1288 1289 4
1288 1328 2
1289 1290 2
1289 1329 1
1290 1291 1
1290 1330 4
1291 1292 5
1291 1331 2
1292 1293 2
1292 1332 5
1293 1294 5
1293 1333 1
1294 1295 5
1294 1334 2
1295 1296 1
1295 1335 3
1296 1297 1
1296 1336 5
1297 1298 1
1297 1337 1
1298 1299 5
1298 1338 5
1299 1300 3
1299 1339 4
1300 1301 5
1300 1340 4
1301 1302 1
1301 1341 5
1302 1303 4
1302 1342 2
1303 1304 2
1303 1343 4
1304 1305 3
1304 1344 4
1305 1306 3
1305 1345 4
1306 1307 2
1306 1346 3
1307 1308 5
1307 1347 1
1308 1309 5
1308 1348 5
1309 1310 5
1309 1349 5
1310 1311 4
1310 1350 3
1311 1312 5
1311 1351 3
1312 1313 4
1312 1352 4
1313 1314 4
1313 1353 5
1314 1315 3
1314 1354 5
1315 1316 5
1315 1355 2
1316 1317 3
1316 1356 3
1317 1318 1
1317 1357 3
1318 1319 5
1318 1358 1
1319 1320 5
1319 1359 4
1320 1360 3
1321 1322 1
1321 1361 4
1322 1323 2
1322 1362 3
1323 1324 1
1323 1363 2
1324 1325 4
1324 1364 5
1325 1326 4
1325 1365 3
1326 1327 5
1326 1366 1
1327 1328 5
1327 1367 5
1328 1329 1
1328 1368 3
1329 1330 2
1329 1369 5
1330 1331 3
1330 1370 1
1331 1332 2
1331 1371 3
1332 1333 5
1332 1372 2
1333 1334 5
1333 1373 4
1334 1335 5
1334 1374 1
1335 1336 1
1335 1375 5
1336 1337 1
1336 1376 5
1337 1338 4
1337 1377 1
1338 1339 2
1338 1378 2
1339 1340 1
1339 1379 5
1340 1341 4
1340 1380 5
1341 1342 1
1341 1381 1
1342 1343 5
1342 1382 4
1343 1344 4
1343 1383 4
1344 1345 4
1344 1384 3
1345 1346 5
1345 1385 3
1346 1347 4
1346 1386 3
1347 1348 5
1347 1387 4
1348 1349 5
1348 1388 2
1349 1350 5
1349 1389 3
1350 1351 2
1350 1390 2
1351 1352 3
1351 1391 1
1352 1353 1
1352 1392 5
1353 1354 5
1353 1393 5
1354 1355 2
1354 1394 3
1355 1356 2
1355 1395 2
1356 1357 5
1356 1396 3
1357 1358 2
1357 1397 3
1358 1359 3
1358 1398 5
1359 1360 1
1359 1399 5
1360 1400 4
1361 1362 1
1361 1401 5
1362 1363 4
1362 1402 3
1363 1364 4
1363 1403 1
1364 1365 2
1364 1404 3
1365 1366 5
1365 1405 5
1366 1367 5
1366 1406 3
1367 1368 5
1367 1407 1
1368 1369 1
1368 1408 5
1369 1370 3
1369 1409 2
1370 1371 1
1370 1410 1
1371 1372 4
1371 1411 1
1372 1373 2
1372 1412 4
1373 1374 4
1373 1413 1
1374 1375 3
1374 1414 1
1375 1376 2
1375 1415 1
1376 1377 2
1376 1416 3
1377 1378 2
1377 1417 5
1378 1379 4
1378 1418 5
1379 1380 3
1379 1419 5
1380 1381 5
1380 1420 3
1381 1382 4
1381 1421 4
1382 1383 4
1382 1422 5
1383 1384 4
1383 1423 3
1384 1385 4
1384 1424 3
1385 1386 4
1385 1425 2
1386 1387 2
1386 1426 2
1387 1388 4
1387 1427 1
1388 1389 5
1388 1428 4
1389 1390 4
1389 1429 4
1390 1391 3
1390 1430 4
1391 1392 1
1391 1431 3
1392 1393 2
1392 1432 3
1393 1394 4
1393 1433 3
1394 1395 4
1394 1434 3
1395 1396 2
1395 1435 3
1396 1397 2
1396 1436 2
1397 1398 4
1397 1437 2
1398 1399 5
1398 1438 1
1399 1400 2
1399 1439 2
1400 1440 4
1401 1402 2
1401 1441 2
1402 1403 3
1402 1442 3
1403 1404 5
1403 1443 5
1404 1405 1
1404 1444 3
1405 1406 1
1405 1445 2
1406 1407 1
1406 1446 3
1407 1408 3
1407 1447 1
1408 1409 2
1408 1448 3
1409 1410 4
1409 1449 1
1410 1411 1
1410 1450 3
1411 1412 5
1411 1451 5
1412 1413 5
1412 1452 4
1413 1414 5
1413 1453 4
1414 1415 2
1414 1454 5
1415 1416 5
1415 1455 3
1416 1417 3
1416 1456 4
1417 1418 4
1417 1457 5
1418 1419 4
1418 1458 1
1419 1420 2
1419 1459 2
1420 1421 3
1420 1460 2
1421 1422 3
1421 1461 3
1422 1423 2
1422 1462 2
1423 1424 2
1423 1463 2
1424 1425 4
1424 1464 4
1425 1426 3
1425 1465 5
1426 1427 2
1426 1466 3
1427 1428 5
1427 1467 5
1428 1429 1
1428 1468 1
1429 1430 5
1429 1469 3
1430 1431 3
1430 1470 3
1431 1432 5
1431 1471 3
1432 1433 4
1432 1472 5
1433 1434 5
1433 1473 1
1434 1435 3
1434 1474 5
1435 1436 2
1435 1475 1
1436 1437 3
1436 1476 2
1437 1438 3
1437 1477 1
1438 1439 1
1438 1478 5
1439 1440 3
1439 1479 3
1440 1480 5
1441 1442 1
1441 1481 1
1442 1443 1
1442 1482 3
1443 1444 3
1443 1483 4
1444 1445 5
1444 1484 2
1445 1446 5
1445 1485 4
1446 1447 3
1446 1486 2
1447 1448 3
1447 1487 3
1448 1449 4
1448 1488 2
1449 1450 3
1449 1489 2
1450 1451 1
1450 1490 4
1451 1452 4
1451 1491 1
1452 1453 5
1452 1492 2
1453 1454 4
1453 1493 4
1454 1455 2
1454 1494 2
1455 1456 1
1455 1495 4
1456 1457 1
1456 1496 3
1457 1458 3
1457 1497 1
1458 1459 1
1458 1498 2
1459 1460 2
1459 1499 5
1460 1461 1
1460 1500 1
1461 1462 1
1461 1501 3
1462 1463 5
1462 1502 1
1463 1464 4
1463 1503 5
1464 1465 2
1464 1504 3
1465 1466 5
1465 1505 1
1466 1467 5
1466 1506 1
1467 1468 5
1467 1507 1
1468 1469 4
1468 1508 2
1469 1470 1
1469 1509 1
1470 1471 4
1470 1510 1
1471 1472 4
1471 1511 2
1472 1473 4
1472 1512 2
1473 1474 3
1473 1513 2
1474 1475 3
1474 1514 1
1475 1476 5
1475 1515 1
1476 1477 1
1476 1516 1
1477 1478 4
1477 1517 4
1478 1479 1
1478 1518 1
1479 1480 4
1479 1519 2
1480 1520 5
1481 1482 5
1481 1521 3
1482 1483 4
1482 1522 1
1483 1484 1
1483 1523 4
1484 1485 2
1484 1524 3
1485 1486 3
1485 1525 4
1486 1487 5
1486 1526 2
1487 1488 5
1487 1527 2
1488 1489 3
1488 1528 3
1489 1490 4
1489 1529 2
1490 1491 1
1490 1530 1
1491 1492 5
1491 1531 5
1492 1493 5
1492 1532 1
1493 1494 3
1493 1533 1
1494 1495 3
1494 1534 2
1495 1496 1
1495 1535 5
1496 1497 2
1496 1536 4
1497 1498 4
1497 1537 1
1498 1499 5
1498 1538 4
1499 1500 1
1499 1539 4
1500 1501 4
1500 1540 2
1501 1502 1
1501 1541 3
1502 1503 5
1502 1542 1
1503 1504 5
1503 1543 1
1504 1505 3
1504 1544 1
1505 1506 2
1505 1545 3
1506 1507 1
1506 1546 3
1507 1508 2
1507 1547 1
1508 1509 3
1508 1548 3
1509 1510 1
1509 1549 1
1510 1511 1
1510 1550 2
1511 1512 3
1511 1551 1
1512 1513 5
1512 1552 3
1513 1514 3
1513 1553 3
1514 1515 4
1514 1554 1
1515 1516 3
1515 1555 4
1516 1517 3
1516 1556 2
1517 1518 4
1517 1557 3
1518 1519 4
1518 1558 2
1519 1520 2
1519 1559 4
1520 1560 1
1521 1522 5
1521 1561 1
1522 1523 4
1522 1562 2
1523 1524 2
1523 1563 3
1524 1525 2
1524 1564 4
1525 1526 4
1525 1565 2
1526 1527 3
1526 1566 5
1527 1528 2
1527 1567 4
1528 1529 2
1528 1568 2
1529 1530 1
1529 1569 2
1530 1531 4
1530 1570 4
1531 1532 2
1531 1571 5
1532 1533 2
1532 1572 5
1533 1534 2
1533 1573 5
1534 1535 4
1534 1574 3
1535 1536 4
1535 1575 5
1536 1537 5
1536 1576 1
1537 1538 5
1537 1577 1
1538 1539 1
1538 1578 1
1539 1540 1
1539 1579 1
1540 1541 1
1540 1580 1
1541 1542 1
1541 1581 2
1542 1543 1
1542 1582 4
1543 1544 4
1543 1583 1
1544 1545 1
1544 1584 2
1545 1546 2
1545 1585 3
1546 1547 1
1546 1586 1
1547 1548 5
1547 1587 5
1548 1549 5
1548 1588 5
1549 1550 1
1549 1589 1
1550 1551 4
1550 1590 3
1551 1552 5
1551 1591 3
1552 1553 1
1552 1592 4
1553 1554 5
1553 1593 3
1554 1555 4
1554 1594 2
1555 1556 4
1555 1595 2
1556 1557 3
1556 1596 1
1557 1558 3
1557 1597 4
1558 1559 3
1558 1598 2
1559 1560 2
1559 1599 4
1560 1600 3
1561 1562 1
1562 1563 4
1563 1564 4
1564 1565 4
1565 1566 1
1566 1567 1
1567 1568 3
1568 1569 4
1569 1570 5
1570 1571 4
1571 1572 3
1572 1573 3
1573 1574 2
1574 1575 4
1575 1576 3
1576 1577 5
1577 1578 4
1578 1579 2
1579 1580 4
1580 1581 3
1581 1582 3
1582 1583 2
1583 1584 1
1584 1585 3
1585 1586 3
1586 1587 1
1587 1588 2
1588 1589 1
1589 1590 4
1590 1591 5
1591 1592 1
1592 1593 1
1593 1594 1
1594 1595 4
1595 1596 1
1596 1597 5
1597 1598 5
1598 1599 5
1599 1600 1
